NAME : X1
COMMENT : 48 capitals of the US (Padberg/Rinaldi)
TYPE : TSP
DIMENSION : 48
EDGE_WEIGHT_TYPE : ATT
NODE_COORD_SECTION
1	571	289
2	688	592
3	1205 276
4	1349 332
5	589	1316
6	1409 730
7	220	405
8	836	843
9	811	989
10	1089 282
11	1390 228
12	1369 420
13	49	1219
14	1094 27
15	64	181
16	108	1406
17	1360 1278
18	172	1153
19	1277 330
20	1236 1327
21	580	968
22	245	1046
23	1130 933
24	1281 1125
25	1212 358
26	406	1483
27	1197 424
28	907	747
29	972	300
30	1165 1090
31	518	1033
32	194	304
33	1118 72
34	415	252
35	1125 1439
36	123	70
37	1401 149
38	82	596
39	705	1222
40	1279 107
41	1058 898
42	1262 1208
43	1212 838
44	535	62
45	838	880
46	896	365
47	1166 849
48	346	1060
EOF